9	9
2	4	8	5	6	2	5	5	0	1	4	3	3	0	1	1	7	1
3	1	6	1	5	4	2	1	1	1	8	5	0	2	7	1	4	1
6	4	3	0	4	5	0	1	2	2	8	3	5	0	1	5	7	5
0	5	8	1	5	1	1	1	2	2	6	2	3	5	4	3	7	5
7	5	1	2	5	5	0	2	4	2	8	2	2	5	6	4	3	5
8	1	2	1	7	0	3	1	0	5	5	2	1	4	6	1	4	2
0	1	4	5	2	0	7	5	3	0	5	3	1	4	8	0	6	2
8	5	7	3	5	1	0	1	2	4	4	2	3	0	6	4	1	5
1	5	3	4	8	5	0	5	4	2	6	5	2	1	7	0	5	1
